116512 100 1100 190 176 100 139 144 169 124 107 159 135 117 177 115 122 191 114 158 137 164 100 113 116 154 116 189 123 184 181 180 135 104 160 144 194 131 109 195 125 128 131 141 110 137 179 196 167 107 182 139 172 159 188 142 141 142 166 149 116 100 160 190 146 179 161 163 141 113 199 119 167 175 152 194 156 183 146 191 195 156 101 147 145 159 144 112 106 135 121 149 166 181 110 119 121 179 157 126 174 187 102 271 241 147 246 105 92 180 114 141 244 111 275 93 235 217 96 228 242 233 88 92 159 244 138 284 210 292 299 231 147 135 244 128 176 173 125 113 100 96 99 137 98 295 297 273 220 158 153 271 242 106 249 113 247 274 162 231 253 96 125 269 121 215 150 255 193 84 294 133 286 281 200 256 244 243 218 165 255 236 173 177 288 206 219 172 81 211 119 227 243 267 99 178 101 259 161 98 268 288 84
